Cost: 703
0-47-18-25-14-0
0-48-8-26-31-28-0
0-5-10-39-33-45-0
0-38-50-21-29-16-11-0
0-27-1-32-0
0-22-3-36-35-2-0
0-12-37-15-44-17-0
0-42-19-41-13-0
0-6-23-7-43-24-0
0-9-34-30-49-46-0
Cost: 703
0-9-34-30-49-46-0
0-17-44-15-37-12-0
0-24-43-7-23-6-0
0-27-1-32-0
0-14-25-18-47-0
0-2-35-36-3-22-0
0-48-8-26-31-28-0
0-42-19-41-13-0
0-11-16-29-21-50-38-0
0-45-33-39-10-5-0
Cost: 703
0-47-18-25-14-0
0-48-8-26-31-28-0
0-5-10-39-33-45-0
0-38-50-21-29-16-11-0
0-27-1-32-0
0-22-3-36-35-2-0
0-12-37-15-44-17-0
0-42-19-41-13-0
0-6-23-7-43-24-0
0-9-34-30-49-46-0
Cost: 703
0-5-10-39-33-45-0
0-48-8-26-31-28-0
0-11-16-29-21-50-38-0
0-42-19-41-13-0
0-2-35-36-3-22-0
0-14-25-18-47-0
0-6-24-43-7-23-0
0-9-34-30-49-46-0
0-27-1-32-0
0-12-37-15-44-17-0
Cost: 703
0-38-50-21-29-16-11-0
0-42-19-41-13-0
0-2-35-36-3-22-0
0-46-49-30-34-9-0
0-17-44-15-37-12-0
0-14-25-18-47-0
0-45-33-39-10-5-0
0-32-1-27-0
0-6-24-43-7-23-0
0-28-31-26-8-48-0
Cost: 703
0-11-16-29-21-50-38-0
0-17-44-15-37-12-0
0-28-31-26-8-48-0
0-6-23-7-43-24-0
0-42-19-41-13-0
0-9-34-30-49-46-0
0-47-18-25-14-0
0-27-1-32-0
0-5-10-39-33-45-0
0-2-35-36-3-22-0
Cost: 703
0-14-25-18-47-0
0-22-3-36-35-2-0
0-11-16-29-21-50-38-0
0-48-8-26-31-28-0
0-45-33-39-10-5-0
0-32-1-27-0
0-42-19-41-13-0
0-17-44-15-37-12-0
0-9-34-30-49-46-0
0-23-7-43-24-6-0
Cost: 703
0-14-25-18-47-0
0-22-3-36-35-2-0
0-11-16-29-21-50-38-0
0-48-8-26-31-28-0
0-45-33-39-10-5-0
0-32-1-27-0
0-42-19-41-13-0
0-17-44-15-37-12-0
0-9-34-30-49-46-0
0-23-7-43-24-6-0
Cost: 703
0-14-25-18-47-0
0-22-3-36-35-2-0
0-11-16-29-21-50-38-0
0-48-8-26-31-28-0
0-45-33-39-10-5-0
0-32-1-27-0
0-42-19-41-13-0
0-17-44-15-37-12-0
0-9-34-30-49-46-0
0-23-7-43-24-6-0
Cost: 703
0-14-25-18-47-0
0-22-3-36-35-2-0
0-11-16-29-21-50-38-0
0-48-8-26-31-28-0
0-45-33-39-10-5-0
0-32-1-27-0
0-42-19-41-13-0
0-17-44-15-37-12-0
0-9-34-30-49-46-0
0-23-7-43-24-6-0
Cost: 703
0-14-25-18-47-0
0-22-3-36-35-2-0
0-11-16-29-21-50-38-0
0-48-8-26-31-28-0
0-45-33-39-10-5-0
0-32-1-27-0
0-42-19-41-13-0
0-17-44-15-37-12-0
0-9-34-30-49-46-0
0-23-7-43-24-6-0
Cost: 703
0-14-25-18-47-0
0-22-3-36-35-2-0
0-11-16-29-21-50-38-0
0-48-8-26-31-28-0
0-45-33-39-10-5-0
0-32-1-27-0
0-42-19-41-13-0
0-17-44-15-37-12-0
0-9-34-30-49-46-0
0-23-7-43-24-6-0
Cost: 703
0-14-25-18-47-0
0-22-3-36-35-2-0
0-11-16-29-21-50-38-0
0-48-8-26-31-28-0
0-45-33-39-10-5-0
0-32-1-27-0
0-42-19-41-13-0
0-17-44-15-37-12-0
0-9-34-30-49-46-0
0-23-7-43-24-6-0
Cost: 703
0-47-18-25-14-0
0-9-34-30-49-46-0
0-12-37-15-44-17-0
0-6-24-43-7-23-0
0-28-31-26-8-48-0
0-42-19-41-13-0
0-22-3-36-35-2-0
0-11-16-29-21-50-38-0
0-27-1-32-0
0-5-10-39-33-45-0
Cost: 703
0-14-25-18-47-0
0-22-3-36-35-2-0
0-11-16-29-21-50-38-0
0-48-8-26-31-28-0
0-45-33-39-10-5-0
0-32-1-27-0
0-42-19-41-13-0
0-17-44-15-37-12-0
0-9-34-30-49-46-0
0-23-7-43-24-6-0
Cost: 703
0-14-25-18-47-0
0-22-3-36-35-2-0
0-11-16-29-21-50-38-0
0-48-8-26-31-28-0
0-45-33-39-10-5-0
0-32-1-27-0
0-42-19-41-13-0
0-17-44-15-37-12-0
0-9-34-30-49-46-0
0-23-7-43-24-6-0
Cost: 703
0-12-37-15-44-17-0
0-47-18-25-14-0
0-27-1-32-0
0-23-7-43-24-6-0
0-9-34-30-49-46-0
0-5-10-39-33-45-0
0-42-19-41-13-0
0-38-50-21-29-16-11-0
0-48-8-26-31-28-0
0-22-3-36-35-2-0
Cost: 703
0-2-35-36-3-22-0
0-5-10-39-33-45-0
0-24-43-7-23-6-0
0-28-31-26-8-48-0
0-47-18-25-14-0
0-11-16-29-21-50-38-0
0-42-19-41-13-0
0-9-34-30-49-46-0
0-12-37-15-44-17-0
0-32-1-27-0
Cost: 703
0-9-34-30-49-46-0
0-27-1-32-0
0-11-16-29-21-50-38-0
0-2-35-36-3-22-0
0-24-43-7-23-6-0
0-14-25-18-47-0
0-48-8-26-31-28-0
0-42-19-41-13-0
0-45-33-39-10-5-0
0-12-37-15-44-17-0
Cost: 703
0-9-34-30-49-46-0
0-27-1-32-0
0-11-16-29-21-50-38-0
0-2-35-36-3-22-0
0-24-43-7-23-6-0
0-14-25-18-47-0
0-48-8-26-31-28-0
0-42-19-41-13-0
0-45-33-39-10-5-0
0-12-37-15-44-17-0
Cost: 703
0-13-41-19-42-0
0-12-37-15-44-17-0
0-2-35-36-3-22-0
0-9-34-30-49-46-0
0-45-33-39-10-5-0
0-14-25-18-47-0
0-28-31-26-8-48-0
0-6-24-43-7-23-0
0-32-1-27-0
0-11-16-29-21-50-38-0
Cost: 703
0-13-41-19-42-0
0-12-37-15-44-17-0
0-2-35-36-3-22-0
0-9-34-30-49-46-0
0-45-33-39-10-5-0
0-14-25-18-47-0
0-28-31-26-8-48-0
0-6-24-43-7-23-0
0-32-1-27-0
0-11-16-29-21-50-38-0
Cost: 703
0-5-10-39-33-45-0
0-38-50-21-29-16-11-0
0-32-1-27-0
0-47-18-25-14-0
0-12-37-15-44-17-0
0-46-49-30-34-9-0
0-48-8-26-31-28-0
0-42-19-41-13-0
0-22-3-36-35-2-0
0-6-23-7-43-24-0
Cost: 703
0-13-41-19-42-0
0-12-37-15-44-17-0
0-2-35-36-3-22-0
0-9-34-30-49-46-0
0-45-33-39-10-5-0
0-14-25-18-47-0
0-28-31-26-8-48-0
0-6-24-43-7-23-0
0-32-1-27-0
0-11-16-29-21-50-38-0
Cost: 703
0-2-35-36-3-22-0
0-5-10-39-33-45-0
0-24-43-7-23-6-0
0-28-31-26-8-48-0
0-47-18-25-14-0
0-11-16-29-21-50-38-0
0-42-19-41-13-0
0-9-34-30-49-46-0
0-12-37-15-44-17-0
0-32-1-27-0
Cost: 703
0-9-34-30-49-46-0
0-27-1-32-0
0-11-16-29-21-50-38-0
0-2-35-36-3-22-0
0-24-43-7-23-6-0
0-14-25-18-47-0
0-48-8-26-31-28-0
0-42-19-41-13-0
0-45-33-39-10-5-0
0-12-37-15-44-17-0
Cost: 703
0-17-44-15-37-12-0
0-32-1-27-0
0-46-49-30-34-9-0
0-42-19-41-13-0
0-45-33-39-10-5-0
0-47-18-25-14-0
0-6-23-7-43-24-0
0-11-16-29-21-50-38-0
0-48-8-26-31-28-0
0-2-35-36-3-22-0
Cost: 0
Cost: 716
0-11-50-34-21-16-0
0-48-8-26-31-28-0
0-46-32-1-27-0
0-12-17-42-44-37-0
0-2-29-35-36-22-0
0-4-13-19-41-0
0-47-18-25-14-0
0-5-33-45-15-0
0-49-10-39-30-9-38-0
0-23-7-43-24-6-0
Cost: 703
0-2-35-36-3-22-0
0-24-43-7-23-6-0
0-17-44-15-37-12-0
0-46-49-30-34-9-0
0-45-33-39-10-5-0
0-38-50-21-29-16-11-0
0-27-1-32-0
0-42-19-41-13-0
0-28-31-26-8-48-0
0-47-18-25-14-0
Cost: 703
0-48-8-26-31-28-0
0-46-49-30-34-9-0
0-12-37-15-44-17-0
0-42-19-41-13-0
0-5-10-39-33-45-0
0-24-43-7-23-6-0
0-47-18-25-14-0
0-38-50-21-29-16-11-0
0-32-1-27-0
0-2-35-36-3-22-0
